#######################
Slurm job id: 17497813_29
Running on machine: p47
Running cmd: /nfs/shared/static-builds/gurobi1003 SOFTMEMLIMIT=125 MIPFocus=2 Presolve=1 TimeLimit=500 seed=18 /nfs/models/miplib2010/k16x240.mps.bz2
#######################
Set parameter TimeLimit to value 500
Set parameter SoftMemLimit to value 125
Set parameter MIPFocus to value 2
Set parameter LogFile to value 1003-MIPFocus2-Presolve1-TimeLimit500-k16x240-8.log
Set parameter Presolve to value 1
Set parameter Seed to value 18
Using license file /opt/gurobi/gurobi.lic

Gurobi Optimizer version 10.0.3 build v10.0.3rc0 (linux64)
Copyright (c) 2023, Gurobi Optimization, LLC

Read MPS format model from file /nfs/models/miplib2010/k16x240.mps.bz2
Reading time = 0.00 seconds
k16x240: 256 rows, 480 columns, 960 nonzeros

CPU model: Intel(R) Xeon(R) E-2388G CPU @ 3.20GHz, instruction set [SSE2|AVX|AVX2|AVX512]
Thread count: 8 physical cores, 16 logical processors, using up to 16 threads

Optimize a model with 256 rows, 480 columns and 960 nonzeros
Model fingerprint: 0x4e80885f
Variable types: 240 continuous, 240 integer (240 binary)
Coefficient statistics:
  Matrix range     [1e+00, 1e+03]
  Objective range  [1e+00, 1e+03]
  Bounds range     [1e+00, 1e+03]
  RHS range        [4e+00, 4e+02]
Found heuristic solution: objective 19474.000000
Presolve time: 0.00s
Presolved: 256 rows, 480 columns, 960 nonzeros
Variable types: 240 continuous, 240 integer (240 binary)

Root relaxation: objective 2.769838e+03, 51 iterations, 0.00 seconds (0.00 work units)

    Nodes    |    Current Node    |     Objective Bounds      |     Work
 Expl Unexpl |  Obj  Depth IntInf | Incumbent    BestBd   Gap | It/Node Time

     0     0 2769.83800    0   14 19474.0000 2769.83800  85.8%     -    0s
H    0     0                    11359.000000 2769.83800  75.6%     -    0s
H    0     0                    11195.000000 2769.83800  75.3%     -    0s
H    0     0                    11074.000000 8116.87580  26.7%     -    0s
     0     0 8116.87580    0   26 11074.0000 8116.87580  26.7%     -    0s
H    0     0                    10916.000000 8116.87580  25.6%     -    0s
H    0     0                    10840.000000 8588.30479  20.8%     -    0s
     0     0 8588.30479    0   25 10840.0000 8588.30479  20.8%     -    0s
     0     0 8613.92228    0   22 10840.0000 8613.92228  20.5%     -    0s
H    0     0                    10750.000000 8613.92228  19.9%     -    0s
     0     0 8720.57299    0   23 10750.0000 8720.57299  18.9%     -    0s
H    0     0                    10748.000000 8720.57299  18.9%     -    0s
     0     0 8841.67029    0   27 10748.0000 8841.67029  17.7%     -    0s
     0     0 8854.70005    0   41 10748.0000 8854.70005  17.6%     -    0s
     0     0 8856.63270    0   42 10748.0000 8856.63270  17.6%     -    0s
     0     0 9021.02588    0   44 10748.0000 9021.02588  16.1%     -    0s
     0     0 9056.76430    0   40 10748.0000 9056.76430  15.7%     -    0s
     0     0 9059.11626    0   35 10748.0000 9059.11626  15.7%     -    0s
     0     0 9082.89806    0   34 10748.0000 9082.89806  15.5%     -    0s
     0     0 9088.82737    0   32 10748.0000 9088.82737  15.4%     -    0s
     0     0 9119.26466    0   30 10748.0000 9119.26466  15.2%     -    0s
     0     0 9120.95134    0   29 10748.0000 9120.95134  15.1%     -    0s
     0     0 9139.68485    0   46 10748.0000 9139.68485  15.0%     -    0s
     0     0 9139.68485    0   46 10748.0000 9139.68485  15.0%     -    0s
     0     2 9139.68485    0   46 10748.0000 9139.68485  15.0%     -    0s
H 1093   789                    10681.000000 9386.47009  12.1%  27.0    0s
H 1491   987                    10674.000000 9386.47009  12.1%  25.6    1s
 26713 11227 10197.3098   33   28 10674.0000 9972.11538  6.58%  29.5    5s
 72316 21747 10498.7229   34   23 10674.0000 10152.4487  4.89%  30.2   10s
 113585 24851     cutoff   46      10674.0000 10260.5247  3.87%  30.6   15s
 155763 24513     cutoff   34      10674.0000 10347.9781  3.05%  30.3   20s
 204028 17853 10561.8819   51    2 10674.0000 10444.4620  2.15%  29.3   25s

Cutting planes:
  Gomory: 2
  Lift-and-project: 14
  Cover: 64
  Implied bound: 39
  MIR: 189
  Flow cover: 354
  Flow path: 50
  Inf proof: 5
  Zero half: 6
  Network: 45
  Relax-and-lift: 1

Explored 246824 nodes (6777739 simplex iterations) in 28.51 seconds (35.00 work units)
Thread count was 16 (of 16 available processors)

Solution count 10: 10674 10681 10748 ... 19474

Optimal solution found (tolerance 1.00e-04)
Best objective 1.067400000000e+04, best bound 1.067400000000e+04, gap 0.0000%
